\ENCODING=ISO-8859-1
\Problem name: IloCplex

Minimize
 obj: a1 + a2 + a3 + a4 + a5 + a6 + a7 + 0.1 t12 + 0.1 t13 + 0.1 t14 + 0.1 t15
      + 0.1 t16 + 0.1 t17 + 0.1 t21 + 0.1 t23 + 0.1 t24 + 0.1 t25 + 0.1 t26
      + 0.1 t27 + 0.1 t31 + 0.1 t32 + 0.1 t34 + 0.1 t35 + 0.1 t36 + 0.1 t37
      + 0.1 t41 + 0.1 t42 + 0.1 t43 + 0.1 t45 + 0.1 t46 + 0.1 t47 + 0.1 t51
      + 0.1 t52 + 0.1 t53 + 0.1 t54 + 0.1 t56 + 0.1 t57 + 0.1 t61 + 0.1 t62
      + 0.1 t63 + 0.1 t64 + 0.1 t65 + 0.1 t67 + 0.1 t71 + 0.1 t72 + 0.1 t73
      + 0.1 t74 + 0.1 t75 + 0.1 t76 + 4 r1 + 4 r2 + 4 r3 + 4 r4 + 4 r5 + 4 r6
      + 4 r7
Subject To
 s2c1:  a1 + t12 + t13 + t14 + t15 + t16 + t17 + f1  = 0
 s2c2:  a2 + t21 + t23 + t24 + t25 + t26 + t27 + f2  = 0
 s2c3:  a3 + t31 + t32 + t34 + t35 + t36 + t37 + f3  = 0
 s2c4:  a4 + t41 + t42 + t43 + t45 + t46 + t47 + f4  = 0
 s2c5:  a5 + t51 + t52 + t53 + t54 + t56 + t57 + f5  = 0
 s2c6:  a6 + t61 + t62 + t63 + t64 + t65 + t67 + f6  = 0
 s2c7:  a7 + t71 + t72 + t73 + t74 + t75 + t76 + f7  = 0
 s2c8:  a1 + q1  = 0
 s2c9:  a2 + q2  = 0
 s2c10: a3 + q3  = 0
 s2c11: a4 + q4  = 0
 s2c12: a5 + q5  = 0
 s2c13: a6 + q6  = 0
 s2c14: a7 + q7  = 0
 s2c15: t21 + t31 + t41 + t51 + t61 + t71 + r1 + f1  = 100
 s2c16: t12 + t32 + t42 + t52 + t62 + t72 + r2 + f2  = 200
 s2c17: t13 + t23 + t43 + t53 + t63 + t73 + r3 + f3  = 150
 s2c18: t14 + t24 + t34 + t54 + t64 + t74 + r4 + f4  = 170
 s2c19: t15 + t25 + t35 + t45 + t65 + t75 + r5 + f5  = 180
 s2c20: t16 + t26 + t36 + t46 + t56 + t76 + r6 + f6  = 170
 s2c21: t17 + t27 + t37 + t47 + t57 + t67 + r7 + f7  = 170
 s2c22: - t12 - t13 - t14 - t15 - t16 - t17 - t21 - t23 - t24 - t25 - t26 - t27
        - t31 - t32 - t34 - t35 - t36 - t37 - t41 - t42 - t43 - t45 - t46 - t47
        - t51 - t52 - t53 - t54 - t56 - t57 - t61 - t62 - t63 - t64 - t65 - t67
        - t71 - t72 - t73 - t74 - t75 - t76 - f1 - f2 - f3 - f4 - f5 - f6 - f7
        + q1 + q2 + q3 + q4 + q5 + q6 + q7  = 0
End
